100
128
8
40
45
16
61
46
38
8
14
46
46
39
13
51
30
13
28
22
5
2
47
40
17
39
33
20
49
34
23
26
43
26
31
16
39
55
55
16
34
18
13
21
37
13
19
29
2
38
41
56
47
15
35
13
3
35
2
35
33
14
3
17
19
13
5
37
25
33
28
21
17
20
21
21
30
45
26
40
40
48
16
24
24
61
17
31
2
54
34
48
32
63
48
64
36
42
24
48
27
45